(set-logic QF_UF)
(declare-fun A0 () Bool)
(declare-fun A1 () Bool)
(declare-fun A2 () Bool)
(declare-fun A3 () Bool)
(declare-fun A4 () Bool)
(declare-fun A5 () Bool)
(declare-fun A6 () Bool)
(declare-fun A7 () Bool)
(declare-fun A8 () Bool)
(declare-fun A9 () Bool)
(declare-fun A10 () Bool)
(declare-fun A11 () Bool)
(declare-fun A12 () Bool)
(declare-fun A14 () Bool)
(declare-fun A15 () Bool)
(declare-fun A16 () Bool)
(declare-fun A17 () Bool)
(declare-fun A18 () Bool)
(declare-fun A19 () Bool)
(declare-fun A20 () Bool)
(declare-fun A21 () Bool)
(declare-fun A22 () Bool)
(declare-fun A23 () Bool)
(declare-fun A24 () Bool)
(assert (let ((.def_0 (not A1))) (let ((.def_1 (not A18))) (let ((.def_2 (and .def_1 .def_0))) (let ((.def_3 (not .def_2))) (let ((.def_4 (not A20))) (let ((.def_5 (and A9 .def_4))) (let ((.def_6 (not .def_5))) (let ((.def_7 (or .def_6 .def_3))) (let ((.def_8 (not .def_7))) (let ((.def_9 (not A19))) (let ((.def_10 (and .def_9 A11))) (let ((.def_11 (or A17 A24))) (let ((.def_12 (= .def_11 .def_10))) (let ((.def_13 (or .def_12 .def_8))) (let ((.def_14 (not .def_13))) (let ((.def_15 (not A21))) (let ((.def_16 (and A2 .def_15))) (let ((.def_17 (not .def_16))) (let ((.def_18 (not A23))) (let ((.def_19 (or .def_15 .def_18))) (let ((.def_20 (and .def_19 .def_17))) (let ((.def_21 (not .def_20))) (let ((.def_22 (not A10))) (let ((.def_23 (or A16 .def_22))) (let ((.def_24 (not .def_23))) (let ((.def_25 (not A14))) (let ((.def_26 (and .def_25 A6))) (let ((.def_27 (or .def_26 .def_24))) (let ((.def_28 (not .def_27))) (let ((.def_29 (and .def_28 .def_21))) (let ((.def_30 (and .def_29 .def_14))) (let ((.def_31 (and A17 A1))) (let ((.def_32 (or A14 A3))) (let ((.def_33 (not .def_32))) (let ((.def_34 (and .def_33 .def_31))) (let ((.def_35 (not A6))) (let ((.def_36 (and .def_35 A5))) (let ((.def_37 (not .def_36))) (let ((.def_38 (not A17))) (let ((.def_39 (or .def_38 A15))) (let ((.def_40 (not .def_39))) (let ((.def_41 (and .def_40 .def_37))) (let ((.def_42 (= .def_41 .def_34))) (let ((.def_43 (not A16))) (let ((.def_44 (or .def_43 .def_22))) (let ((.def_45 (and A23 .def_0))) (let ((.def_46 (not .def_45))) (let ((.def_47 (or .def_46 .def_44))) (let ((.def_48 (not .def_47))) (let ((.def_49 (not A4))) (let ((.def_50 (or .def_49 A7))) (let ((.def_51 (not A15))) (let ((.def_52 (and .def_51 .def_4))) (let ((.def_53 (not .def_52))) (let ((.def_54 (and .def_53 .def_50))) (let ((.def_55 (= .def_54 .def_48))) (let ((.def_56 (or .def_55 .def_42))) (let ((.def_57 (not .def_56))) (let ((.def_58 (or .def_57 .def_30))) (let ((.def_59 (not .def_58))) (let ((.def_60 (not A8))) (let ((.def_61 (not A7))) (let ((.def_62 (and .def_61 .def_60))) (let ((.def_63 (and A8 .def_51))) (let ((.def_64 (not .def_63))) (let ((.def_65 (or .def_64 .def_62))) (let ((.def_66 (not .def_65))) (let ((.def_67 (not A0))) (let ((.def_68 (or .def_0 .def_67))) (let ((.def_69 (and A21 A2))) (let ((.def_70 (not .def_69))) (let ((.def_71 (or .def_70 .def_68))) (let ((.def_72 (or .def_71 .def_66))) (let ((.def_73 (not .def_72))) (let ((.def_74 (or A24 .def_51))) (let ((.def_75 (not A11))) (let ((.def_76 (and .def_75 .def_75))) (let ((.def_77 (or .def_76 .def_74))) (let ((.def_78 (not .def_77))) (let ((.def_79 (and A7 .def_35))) (let ((.def_80 (or A19 A20))) (let ((.def_81 (not .def_80))) (let ((.def_82 (or .def_81 .def_79))) (let ((.def_83 (not .def_82))) (let ((.def_84 (or .def_83 .def_78))) (let ((.def_85 (and .def_84 .def_73))) (let ((.def_86 (not .def_85))) (let ((.def_87 (and A11 .def_35))) (let ((.def_88 (not .def_87))) (let ((.def_89 (not A5))) (let ((.def_90 (and .def_89 A15))) (let ((.def_91 (or .def_90 .def_88))) (let ((.def_92 (not .def_91))) (let ((.def_93 (not A22))) (let ((.def_94 (or A24 .def_93))) (let ((.def_95 (not .def_94))) (let ((.def_96 (= A2 A19))) (let ((.def_97 (not .def_96))) (let ((.def_98 (or .def_97 .def_95))) (let ((.def_99 (not .def_98))) (let ((.def_100 (or .def_99 .def_92))) (let ((.def_101 (or .def_25 .def_0))) (let ((.def_102 (not .def_101))) (let ((.def_103 (and .def_4 A7))) (let ((.def_104 (not .def_103))) (let ((.def_105 (or .def_104 .def_102))) (let ((.def_106 (not A12))) (let ((.def_107 (and A2 .def_106))) (let ((.def_108 (not .def_107))) (let ((.def_109 (not A24))) (let ((.def_110 (and .def_109 .def_60))) (let ((.def_111 (not .def_110))) (let ((.def_112 (or .def_111 .def_108))) (let ((.def_113 (not .def_112))) (let ((.def_114 (or .def_113 .def_105))) (let ((.def_115 (not .def_114))) (let ((.def_116 (or .def_115 .def_100))) (let ((.def_117 (and .def_116 .def_86))) (let ((.def_118 (not .def_117))) (let ((.def_119 (or .def_118 .def_59))) (let ((.def_120 (not .def_119))) .def_120))))))))))))))))))))))))))))))))))))))))))))))))))))))))))))))))))))))))))))))))))))))))))))))))))))))))))))))))))))))))))
(check-sat)
